
******************************************************************************
This program contains Ipopt, a library for large-scale nonlinear optimization.
 Ipopt is released as open source code under the Eclipse Public License (EPL).
         For more information visit http://projects.coin-or.org/Ipopt

This version of Ipopt was compiled from source code available at
    https://github.com/IDAES/Ipopt as part of the Institute for the Design of
    Advanced Energy Systems Process Systems Engineering Framework (IDAES PSE
    Framework) Copyright (c) 2018-2019. See https://github.com/IDAES/idaes-pse.

This version of Ipopt was compiled using HSL, a collection of Fortran codes
    for large-scale scientific computation.  All technical papers, sales and
    publicity material resulting from use of the HSL codes within IPOPT must
    contain the following acknowledgement:
        HSL, a collection of Fortran codes for large-scale scientific
        computation. See http://www.hsl.rl.ac.uk.
******************************************************************************

This is Ipopt version 3.13.2, running with linear solver ma27.

Number of nonzeros in equality constraint Jacobian...:     1084
Number of nonzeros in inequality constraint Jacobian.:        0
Number of nonzeros in Lagrangian Hessian.............:     1088

Total number of variables............................:      448
                     variables with only lower bounds:      128
                variables with lower and upper bounds:      256
                     variables with only upper bounds:        0
Total number of equality constraints.................:      446
Total number of inequality constraints...............:        0
        inequality constraints with only lower bounds:        0
   inequality constraints with lower and upper bounds:        0
        inequality constraints with only upper bounds:        0

iter    objective    inf_pr   inf_du lg(mu)  ||d||  lg(rg) alpha_du alpha_pr  ls
   0  0.0000000e+00 1.09e+00 2.29e-14  -1.0 0.00e+00    -  0.00e+00 0.00e+00   0
   1  1.2492875e-05 1.09e+00 1.18e+03  -1.0 6.44e+04    -  6.90e-01 3.60e-03h  1
   2  1.7618481e-01 9.30e-01 1.06e+05  -1.0 1.13e+05    -  7.44e-01 2.23e-01h  1
   3  1.8270358e+00 6.38e-01 4.63e+04  -1.0 1.16e+05    -  8.31e-01 5.27e-01h  1
   4  2.2507994e+00 5.55e-01 3.99e+04  -1.0 7.17e+04    -  1.96e-01 1.35e-01h  1
   5  6.2418222e+00 9.91e-02 1.28e+05  -1.0 6.60e+04    -  5.60e-02 9.77e-01h  1
   6  6.6499220e+00 9.58e-04 3.13e+04  -1.0 5.36e+03    -  8.65e-01 9.90e-01h  1
   7  6.6757772e+00 2.90e-05 6.83e+04  -1.0 1.22e+03    -  4.93e-01 9.90e-01h  1
   8  6.6973829e+00 4.23e-05 3.08e+06  -1.0 1.15e+03    -  7.64e-01 9.90e-01h  1
   9  6.7770722e+00 1.27e-05 4.93e+08  -1.0 3.91e+03    -  6.29e-01 9.90e-01H  1
iter    objective    inf_pr   inf_du lg(mu)  ||d||  lg(rg) alpha_du alpha_pr  ls
  10  6.9184551e+00 5.83e-06 2.72e+10  -1.0 5.63e+03    -  7.91e-01 9.90e-01H  1
  11  7.1618593e+00 1.96e-06 2.38e+08  -1.0 5.15e+03    -  9.90e-01 9.90e-01H  1
  12  6.7407330e+00 5.13e-04 5.80e+12  -2.5 1.33e+04    -  9.97e-01 8.47e-01f  1
  13  6.6563152e+00 5.46e-05 3.11e+13  -2.5 6.40e+03    -  1.00e+00 8.79e-01H  1
In iteration 13, 32 Slacks too small, adjusting variable bounds
  14  6.6592527e+00 3.82e-06 6.01e+12  -2.5 3.88e+02    -  1.00e+00 9.97e-01h  1
  15  6.6588202e+00 1.11e-07 2.50e-01  -2.5 5.85e+01    -  1.00e+00 1.00e+00h  1
  16  6.6509314e+00 3.86e-06 7.68e+13  -8.6 3.58e+02    -  1.00e+00 7.49e-01f  1
  17  6.6505778e+00 1.09e-07 2.18e+12  -8.6 5.51e+00    -  1.00e+00 9.72e-01h  1
  18  6.6505777e+00 8.77e-11 3.17e-04  -8.6 1.58e-03    -  1.00e+00 1.00e+00h  1

Number of Iterations....: 18

                                   (scaled)                 (unscaled)
Objective...............:   6.6505777432167257e+00    6.6505777432167257e+00
Dual infeasibility......:   3.1697750091552734e-04    3.1697750091552734e-04
Constraint violation....:   8.7658325043094010e-11    8.7658325043094010e-11
Complementarity.........:   2.5071422084390728e-09    2.5071422084390728e-09
Overall NLP error.......:   1.9903624940218525e-09    3.1697750091552734e-04


Number of objective function evaluations             = 27
Number of objective gradient evaluations             = 19
Number of equality constraint evaluations            = 27
Number of inequality constraint evaluations          = 0
Number of equality constraint Jacobian evaluations   = 19
Number of inequality constraint Jacobian evaluations = 0
Number of Lagrangian Hessian evaluations             = 18
Total CPU secs in IPOPT (w/o function evaluations)   =      0.029
Total CPU secs in NLP function evaluations           =      0.353

EXIT: Optimal Solution Found.
